(set-option :produce-unsat-cores true) ; enable generation of unsat cores
(set-option :produce-models true) ; enable model generation
(set-logic ALL)
(declare-sort var630 0)
(declare-sort void 0)
(declare-sort Iterator 0)
(declare-sort ClassObject 0)
(declare-fun String-init () String)
(define-fun <init>/1968657023 () String "")
(define-fun append/672562846 ((s String) (tail String)) String (str.++ s tail))
(define-fun append/-1001720160 ((s String) (tail Int)) String (str.++ s (str.from_int tail)))
(declare-fun getMethodrefClassName/-1362593064 (var630 Int) String)
(declare-fun getMethodrefName/-790610386 (var630 Int) String)
(declare-fun getMethodrefType/-1465461859 (var630 Int) String)
(define-fun toString/-2075883882 ((s String)) String s)
(declare-const null-var630 var630)
(declare-const null-Int Int)
(declare-const var2625 var630) ; Statement: r3 := @parameter0: org.apache.ibatis.javassist.bytecode.ConstPool 
(assert (not (= var2625 null-var630)))
(declare-const var3078 Int) ; Statement: i0 := @parameter1: int 
(assert (not (= var3078 null-Int)))
(define-const var1232 String String-init) ; Statement: $r0 = new java.lang.StringBuilder 
(assert true)
;(assert (<init>/1968657023 var1232)) ; Statement: specialinvoke $r0.<java.lang.StringBuilder: void <init>()>() 
(declare-const var1232!1 String)
(assert (= var1232!1 ""))
(assert true)
(define-const var1996 String (append/672562846 var1232!1 "#")) ; Statement: $r1 = virtualinvoke $r0.<java.lang.StringBuilder: java.lang.StringBuilder append(java.lang.String)>("#") 
(declare-const var1232!2 String)
(assert (= var1232!2 (str.++ var1232!1 "#")))
(assert true)
(define-const var2321 String (append/-1001720160 var1996 var3078)) ; Statement: $r2 = virtualinvoke $r1.<java.lang.StringBuilder: java.lang.StringBuilder append(int)>(i0) 
(declare-const var1996!1 String)
(assert (str.prefixof var1996 var1996!1))
(assert true)
(define-const var2638 String (append/672562846 var2321 " = Method ")) ; Statement: $r5 = virtualinvoke $r2.<java.lang.StringBuilder: java.lang.StringBuilder append(java.lang.String)>(" = Method ") 
(declare-const var2321!1 String)
(assert (= var2321!1 (str.++ var2321 " = Method ")))
(assert true)
(define-const var3720 String (getMethodrefClassName/-1362593064 var2625 var3078)) ; Statement: $r4 = virtualinvoke r3.<org.apache.ibatis.javassist.bytecode.ConstPool: java.lang.String getMethodrefClassName(int)>(i0) 
(assert true)
(define-const var826 String (append/672562846 var2638 var3720)) ; Statement: $r6 = virtualinvoke $r5.<java.lang.StringBuilder: java.lang.StringBuilder append(java.lang.String)>($r4) 
(declare-const var2638!1 String)
(assert (= var2638!1 (str.++ var2638 var3720)))
(assert true)
(define-const var1186 String (append/672562846 var826 ".")) ; Statement: $r8 = virtualinvoke $r6.<java.lang.StringBuilder: java.lang.StringBuilder append(java.lang.String)>(".") 
(declare-const var826!1 String)
(assert (= var826!1 (str.++ var826 ".")))
(assert true)
(define-const var3246 String (getMethodrefName/-790610386 var2625 var3078)) ; Statement: $r7 = virtualinvoke r3.<org.apache.ibatis.javassist.bytecode.ConstPool: java.lang.String getMethodrefName(int)>(i0) 
(assert true)
(define-const var2406 String (append/672562846 var1186 var3246)) ; Statement: $r9 = virtualinvoke $r8.<java.lang.StringBuilder: java.lang.StringBuilder append(java.lang.String)>($r7) 
(declare-const var1186!1 String)
(assert (= var1186!1 (str.++ var1186 var3246)))
(assert true)
(define-const var2203 String (append/672562846 var2406 "(")) ; Statement: $r11 = virtualinvoke $r9.<java.lang.StringBuilder: java.lang.StringBuilder append(java.lang.String)>("(") 
(declare-const var2406!1 String)
(assert (= var2406!1 (str.++ var2406 "(")))
(assert true)
(define-const var3118 String (getMethodrefType/-1465461859 var2625 var3078)) ; Statement: $r10 = virtualinvoke r3.<org.apache.ibatis.javassist.bytecode.ConstPool: java.lang.String getMethodrefType(int)>(i0) 
(assert true)
(define-const var2221 String (append/672562846 var2203 var3118)) ; Statement: $r12 = virtualinvoke $r11.<java.lang.StringBuilder: java.lang.StringBuilder append(java.lang.String)>($r10) 
(declare-const var2203!1 String)
(assert (= var2203!1 (str.++ var2203 var3118)))
(assert true)
(define-const var2880 String (append/672562846 var2221 ")")) ; Statement: $r13 = virtualinvoke $r12.<java.lang.StringBuilder: java.lang.StringBuilder append(java.lang.String)>(")") 
(declare-const var2221!1 String)
(assert (= var2221!1 (str.++ var2221 ")")))
(assert true)
(define-const var563 String (toString/-2075883882 var2880)) ; Statement: $r14 = virtualinvoke $r13.<java.lang.StringBuilder: java.lang.String toString()>() 
 ; Statement: return $r14 
(check-sat)
(get-model)
(get-unsat-core)
; {String-init=([], java.lang.StringBuilder), <init>/1968657023=([java.lang.StringBuilder], void), append/672562846=([java.lang.StringBuilder, java.lang.String], java.lang.StringBuilder), append/-1001720160=([java.lang.StringBuilder, int], java.lang.StringBuilder), getMethodrefClassName/-1362593064=([org.apache.ibatis.javassist.bytecode.ConstPool, int], java.lang.String), getMethodrefName/-790610386=([org.apache.ibatis.javassist.bytecode.ConstPool, int], java.lang.String), getMethodrefType/-1465461859=([org.apache.ibatis.javassist.bytecode.ConstPool, int], java.lang.String), toString/-2075883882=([java.lang.StringBuilder], java.lang.String)}
; {var630=org.apache.ibatis.javassist.bytecode.ConstPool, var2625=r3, var3078=i0, var1232=$r0, var1996=$r1, var2321=$r2, var2638=$r5, var3720=$r4, var826=$r6, var1186=$r8, var3246=$r7, var2406=$r9, var2203=$r11, var3118=$r10, var2221=$r12, var2880=$r13, var563=$r14}
; {org.apache.ibatis.javassist.bytecode.ConstPool=var630, r3=var2625, i0=var3078, $r0=var1232, $r1=var1996, $r2=var2321, $r5=var2638, $r4=var3720, $r6=var826, $r8=var1186, $r7=var3246, $r9=var2406, $r11=var2203, $r10=var3118, $r12=var2221, $r13=var2880, $r14=var563}
;seq <java.lang.StringBuilder: void <init>()>;	<java.lang.StringBuilder: java.lang.StringBuilder append(java.lang.String)>;	<java.lang.StringBuilder: java.lang.StringBuilder append(int)>;	<java.lang.StringBuilder: java.lang.StringBuilder append(java.lang.String)>;	<java.lang.StringBuilder: java.lang.StringBuilder append(java.lang.String)>;	<java.lang.StringBuilder: java.lang.StringBuilder append(java.lang.String)>;	<java.lang.StringBuilder: java.lang.StringBuilder append(java.lang.String)>;	<java.lang.StringBuilder: java.lang.StringBuilder append(java.lang.String)>;	<java.lang.StringBuilder: java.lang.StringBuilder append(java.lang.String)>;	<java.lang.StringBuilder: java.lang.StringBuilder append(java.lang.String)>;	<java.lang.StringBuilder: java.lang.String toString()>
;cnt {"<java.lang.StringBuilder: void <init>()>": 1,"<java.lang.StringBuilder: java.lang.StringBuilder append(java.lang.String)>": 8,"<java.lang.StringBuilder: java.lang.StringBuilder append(int)>": 1,"<java.lang.StringBuilder: java.lang.String toString()>": 1}
;stmts r3 := @parameter0: org.apache.ibatis.javassist.bytecode.ConstPool;	i0 := @parameter1: int;	$r0 = new java.lang.StringBuilder;	specialinvoke $r0.<java.lang.StringBuilder: void <init>()>();	$r1 = virtualinvoke $r0.<java.lang.StringBuilder: java.lang.StringBuilder append(java.lang.String)>("#");	$r2 = virtualinvoke $r1.<java.lang.StringBuilder: java.lang.StringBuilder append(int)>(i0);	$r5 = virtualinvoke $r2.<java.lang.StringBuilder: java.lang.StringBuilder append(java.lang.String)>(" = Method ");	$r4 = virtualinvoke r3.<org.apache.ibatis.javassist.bytecode.ConstPool: java.lang.String getMethodrefClassName(int)>(i0);	$r6 = virtualinvoke $r5.<java.lang.StringBuilder: java.lang.StringBuilder append(java.lang.String)>($r4);	$r8 = virtualinvoke $r6.<java.lang.StringBuilder: java.lang.StringBuilder append(java.lang.String)>(".");	$r7 = virtualinvoke r3.<org.apache.ibatis.javassist.bytecode.ConstPool: java.lang.String getMethodrefName(int)>(i0);	$r9 = virtualinvoke $r8.<java.lang.StringBuilder: java.lang.StringBuilder append(java.lang.String)>($r7);	$r11 = virtualinvoke $r9.<java.lang.StringBuilder: java.lang.StringBuilder append(java.lang.String)>("(");	$r10 = virtualinvoke r3.<org.apache.ibatis.javassist.bytecode.ConstPool: java.lang.String getMethodrefType(int)>(i0);	$r12 = virtualinvoke $r11.<java.lang.StringBuilder: java.lang.StringBuilder append(java.lang.String)>($r10);	$r13 = virtualinvoke $r12.<java.lang.StringBuilder: java.lang.StringBuilder append(java.lang.String)>(")");	$r14 = virtualinvoke $r13.<java.lang.StringBuilder: java.lang.String toString()>();	return $r14
;block_num 1